\ This file was automatically generated by Zimpl
\ var x1 >= 0;
\ var x2 >= 0;
\ var x3 >= 0;
\ maximize Z:     1*x1 + 2*x2;
\ subto c1:     2*x1 + 3*x2 + 0*x3 == 5;
\ subto c2:     6*x1 + 9*x2 + 0*x3 == 15;
\ subto c3:     -1*x1 + 1*x2 + 1*x3 == 0;
\Problem name: pp
Maximize
 Z:  + x1 +2 x2
Subject to
 c1_1:
  +3 x2 +2 x1 = 5
 c2_1:
  +9 x2 +6 x1 = 15
 c3_1:
  + x3 + x2 - x1 = 0
Bounds
 0 <= x1 <= +inf
 0 <= x2 <= +inf
 0 <= x3 <= +inf
End
